10
1 0 4
2 0 28
2 1 19
3 0 18
3 1 3
3 2 40
4 0 27
4 1 30
4 2 5
4 3 23
5 0 6
5 1 33
5 2 37
5 3 37
5 4 17
6 0 16
6 1 25
6 2 21
6 3 20
6 4 9
6 5 29
7 0 10
7 1 23
7 2 13
7 3 16
7 4 36
7 5 17
7 6 37
8 0 7
8 1 14
8 2 5
8 3 23
8 4 31
8 5 21
8 6 5
8 7 16
9 0 25
9 1 32
9 2 15
9 3 36
9 4 5
9 5 17
9 6 28
9 7 19
9 8 34
